15 2 
3384	3384	
369	97	98	
507	263	288	
351	466	472	
703	142	155	
885	73	73	
868	435	445	
543	851	933	
419	837	845	
491	913	922	
577	727	771	
366	268	279	
475	104	106	
934	681	701	
408	210	212	
115	701	716	
